c description: Random 3-CNF over 15 variables and 65 clauses
c generator: CNFgen (0.9.0)
c copyright: (C) 2012-2020 Massimo Lauria <massimo.lauria@uniroma1.it>
c url: https://massimolauria.net/cnfgen
c
p cnf 15 65
2 5 -6 0
3 5 12 0
4 -5 -7 0
3 7 -9 0
-4 -8 -12 0
6 9 -11 0
-8 -10 11 0
1 -13 15 0
2 3 -6 0
6 -9 15 0
-1 -3 5 0
4 -7 10 0
-6 -11 13 0
1 12 -14 0
8 -10 11 0
-1 9 14 0
10 -14 -15 0
-6 13 14 0
-3 -6 10 0
-1 5 -14 0
-1 -7 -15 0
7 -11 -14 0
3 9 -14 0
2 3 11 0
-6 8 -9 0
4 5 6 0
4 -10 -12 0
2 -4 11 0
4 6 10 0
-2 -3 5 0
4 7 -14 0
4 8 13 0
-3 4 11 0
-8 -9 -13 0
3 -13 14 0
1 7 -8 0
-5 7 14 0
1 6 -9 0
4 -7 11 0
-2 3 13 0
-2 -6 -14 0
1 2 5 0
-1 14 -15 0
-7 8 -14 0
-2 -5 -10 0
10 11 13 0
4 -9 -11 0
2 -6 -12 0
-5 -7 8 0
-3 -4 10 0
4 -6 -12 0
9 11 -12 0
-4 -8 12 0
6 -11 15 0
-1 8 13 0
-4 7 -13 0
6 -9 -10 0
3 10 -13 0
5 -10 -12 0
-2 -4 11 0
-3 -7 -9 0
-1 -2 3 0
4 -6 -11 0
-2 -4 -8 0
-1 -10 -11 0